20
3 0 1
3 1 1
4 0 1
5 1 1
5 4 1
6 1 1
6 2 1
6 4 1
7 5 1
8 1 1
8 2 1
8 3 1
8 4 1
8 7 1
9 2 1
9 3 1
9 4 1
9 6 1
9 7 1
10 1 1
10 3 1
10 5 1
10 7 1
10 9 1
11 2 1
11 3 1
11 4 1
11 5 1
11 7 1
11 9 1
12 3 1
12 4 1
12 7 1
12 8 1
12 9 1
12 11 1
13 0 1
13 1 1
13 3 1
13 4 1
13 6 1
13 9 1
13 10 1
13 11 1
14 2 1
14 6 1
14 13 1
15 0 1
15 1 1
15 2 1
15 3 1
15 4 1
15 5 1
15 6 1
15 8 1
15 12 1
15 13 1
16 0 1
16 1 1
16 2 1
16 4 1
16 10 1
16 11 1
16 13 1
16 14 1
17 0 1
17 4 1
17 6 1
17 8 1
17 9 1
17 10 1
17 11 1
17 12 1
17 15 1
17 16 1
18 0 1
18 2 1
18 4 1
18 5 1
18 6 1
18 7 1
18 8 1
18 9 1
18 17 1
19 0 1
19 2 1
19 3 1
19 5 1
19 7 1
19 8 1
19 9 1
19 12 1
19 13 1
19 17 1
